Route #1: 0 32 13 41 37 34 21 6 0
Route #2: 0 7 16 18 29 19 40 17 5 0
Route #3: 0 25 28 33 43 27 35 20 0
Route #4: 0 15 15 31 3 12 1 0
Route #5: 0 2 36 14 26 39 24 10 0
Route #6: 0 38 23 11 0
Route #7: 0 9 30 42 22 8 4 0
Cost 955:
